p cnf 489 1039
c
c CNF representation of circuit s641 with a subset ofoutputs randomly xor-ed
c Generated by mMsim
c Total gates: 433 Total inputs 54
c
c
p cnf 489 1039
c
c Declaration of independent support
c
c ind 1 2 3 4 5 0
c ind 6 7 8 9 10 0
c ind 11 12 13 14 15 0
c ind 16 17 18 19 20 0
c ind 21 22 23 24 25 0
c ind 26 27 28 29 30 0
c ind 31 32 33 34 35 0
c ind 36 37 38 39 40 0
c ind 41 42 43 44 45 0
c ind 46 47 48 49 50 0
c ind 51 52 53 54 0
c
c Gate #56: not (NOT_0): out = 55, in = 1 
55 1 0
-55 -1 0
c Gate #57: not (NOT_1): out = 56, in = 2 
56 2 0
-56 -2 0
c Gate #58: not (NOT_2): out = 57, in = 3 
57 3 0
-57 -3 0
c Gate #59: not (NOT_3): out = 58, in = 4 
58 4 0
-58 -4 0
c Gate #60: not (NOT_4): out = 59, in = 5 
59 5 0
-59 -5 0
c Gate #61: not (NOT_5): out = 60, in = 6 
60 6 0
-60 -6 0
c Gate #62: not (NOT_6): out = 61, in = 7 
61 7 0
-61 -7 0
c Gate #63: not (NOT_7): out = 62, in = 8 
62 8 0
-62 -8 0
c Gate #64: not (NOT_8): out = 63, in = 9 
63 9 0
-63 -9 0
c Gate #65: not (NOT_9): out = 64, in = 10 
64 10 0
-64 -10 0
c Gate #66: not (NOT_10): out = 65, in = 11 
65 11 0
-65 -11 0
c Gate #67: not (NOT_11): out = 66, in = 12 
66 12 0
-66 -12 0
c Gate #68: not (NOT_12): out = 67, in = 26 
67 26 0
-67 -26 0
c Gate #69: not (NOT_13): out = 68, in = 28 
68 28 0
-68 -28 0
c Gate #70: not (NOT_14): out = 69, in = 42 
69 42 0
-69 -42 0
c Gate #71: not (NOT_15): out = 70, in = 43 
70 43 0
-70 -43 0
c Gate #72: not (NOT_16): out = 71, in = 44 
71 44 0
-71 -44 0
c Gate #73: not (NOT_17): out = 72, in = 52 
72 52 0
-72 -52 0
c Gate #74: not (NOT_18): out = 73, in = 45 
73 45 0
-73 -45 0
c Gate #75: not (NOT_19): out = 74, in = 53 
74 53 0
-74 -53 0
c Gate #76: not (NOT_20): out = 75, in = 46 
75 46 0
-75 -46 0
c Gate #77: not (NOT_21): out = 76, in = 54 
76 54 0
-76 -54 0
c Gate #78: not (NOT_22): out = 77, in = 47 
77 47 0
-77 -47 0
c Gate #79: not (NOT_23): out = 78, in = 40 
78 40 0
-78 -40 0
c Gate #80: not (NOT_24): out = 79, in = 48 
79 48 0
-79 -48 0
c Gate #81: not (NOT_25): out = 80, in = 41 
80 41 0
-80 -41 0
c Gate #82: not (NOT_26): out = 81, in = 49 
81 49 0
-81 -49 0
c Gate #83: not (NOT_27): out = 82, in = 50 
82 50 0
-82 -50 0
c Gate #84: not (NOT_28): out = 83, in = 51 
83 51 0
-83 -51 0
c Gate #85: not (NOT_29): out = 84, in = 55 
84 55 0
-84 -55 0
c Gate #86: not (NOT_30): out = 85, in = 58 
85 58 0
-85 -58 0
c Gate #87: not (NOT_31): out = 86, in = 59 
86 59 0
-86 -59 0
c Gate #88: not (NOT_32): out = 87, in = 60 
87 60 0
-87 -60 0
c Gate #89: not (NOT_33): out = 88, in = 61 
88 61 0
-88 -61 0
c Gate #90: not (NOT_34): out = 89, in = 62 
89 62 0
-89 -62 0
c Gate #91: not (NOT_35): out = 90, in = 63 
90 63 0
-90 -63 0
c Gate #92: not (NOT_36): out = 91, in = 64 
91 64 0
-91 -64 0
c Gate #93: not (NOT_37): out = 92, in = 65 
92 65 0
-92 -65 0
c Gate #94: not (NOT_38): out = 93, in = 66 
93 66 0
-93 -66 0
c Gate #95: not (NOT_39): out = 94, in = 67 
94 67 0
-94 -67 0
c Gate #96: not (NOT_40): out = 95, in = 68 
95 68 0
-95 -68 0
c Gate #97: not (NOT_41): out = 96, in = 69 
96 69 0
-96 -69 0
c Gate #98: not (NOT_42): out = 97, in = 70 
97 70 0
-97 -70 0
c Gate #99: not (NOT_43): out = 98, in = 71 
98 71 0
-98 -71 0
c Gate #100: not (NOT_44): out = 99, in = 72 
99 72 0
-99 -72 0
c Gate #101: not (NOT_45): out = 100, in = 73 
100 73 0
-100 -73 0
c Gate #102: not (NOT_46): out = 101, in = 74 
101 74 0
-101 -74 0
c Gate #103: not (NOT_47): out = 102, in = 75 
102 75 0
-102 -75 0
c Gate #104: not (NOT_48): out = 103, in = 76 
103 76 0
-103 -76 0
c Gate #105: not (NOT_49): out = 104, in = 77 
104 77 0
-104 -77 0
c Gate #106: not (NOT_50): out = 105, in = 78 
105 78 0
-105 -78 0
c Gate #107: not (NOT_51): out = 106, in = 79 
106 79 0
-106 -79 0
c Gate #108: not (NOT_52): out = 107, in = 80 
107 80 0
-107 -80 0
c Gate #109: not (NOT_53): out = 108, in = 81 
108 81 0
-108 -81 0
c Gate #110: not (NOT_54): out = 109, in = 82 
109 82 0
-109 -82 0
c Gate #111: not (NOT_55): out = 110, in = 83 
110 83 0
-110 -83 0
c Gate #112: not (NOT_56): out = 111, in = 85 
111 85 0
-111 -85 0
c Gate #113: not (NOT_57): out = 112, in = 85 
112 85 0
-112 -85 0
c Gate #114: not (NOT_58): out = 113, in = 85 
113 85 0
-113 -85 0
c Gate #115: not (NOT_59): out = 114, in = 85 
114 85 0
-114 -85 0
c Gate #116: not (NOT_60): out = 115, in = 85 
115 85 0
-115 -85 0
c Gate #117: not (NOT_61): out = 116, in = 85 
116 85 0
-116 -85 0
c Gate #118: not (NOT_62): out = 117, in = 85 
117 85 0
-117 -85 0
c Gate #119: not (NOT_63): out = 118, in = 89 
118 89 0
-118 -89 0
c Gate #120: not (NOT_64): out = 119, in = 90 
119 90 0
-119 -90 0
c Gate #121: not (NOT_65): out = 120, in = 91 
120 91 0
-120 -91 0
c Gate #122: not (NOT_66): out = 121, in = 92 
121 92 0
-121 -92 0
c Gate #123: not (NOT_67): out = 122, in = 93 
122 93 0
-122 -93 0
c Gate #124: and (AND3_0): out = 123, in = 93 92 91 
-434 93 0
-434 92 0
434 -93 -92 0
-123 434 0
-123 91 0
123 -434 -91 0
c Gate #125: and (AND2_0): out = 124, in = 107 111 
-124 107 0
-124 111 0
124 -107 -111 0
c Gate #126: and (AND2_1): out = 125, in = 97 112 
-125 97 0
-125 112 0
125 -97 -112 0
c Gate #127: and (AND2_2): out = 126, in = 100 113 
-126 100 0
-126 113 0
126 -100 -113 0
c Gate #128: and (AND2_3): out = 127, in = 110 114 
-127 110 0
-127 114 0
127 -110 -114 0
c Gate #129: and (AND2_4): out = 128, in = 99 115 
-128 99 0
-128 115 0
128 -99 -115 0
c Gate #130: and (AND2_5): out = 129, in = 101 116 
-129 101 0
-129 116 0
129 -101 -116 0
c Gate #131: and (AND2_6): out = 130, in = 103 117 
-130 103 0
-130 117 0
130 -103 -117 0
c Gate #132: and (AND2_7): out = 131, in = 120 57 
-131 120 0
-131 57 0
131 -120 -57 0
c Gate #133: and (AND2_8): out = 132, in = 120 57 
-132 120 0
-132 57 0
132 -120 -57 0
c Gate #134: and (AND2_9): out = 133, in = 120 57 
-133 120 0
-133 57 0
133 -120 -57 0
c Gate #135: and (AND2_10): out = 134, in = 120 57 
-134 120 0
-134 57 0
134 -120 -57 0
c Gate #136: and (AND4_0): out = 135, in = 122 119 118 57 
-435 122 0
-435 119 0
435 -122 -119 0
-436 435 0
-436 118 0
436 -435 -118 0
-135 436 0
-135 57 0
135 -436 -57 0
c Gate #137: and (AND4_1): out = 136, in = 122 90 118 57 
-437 122 0
-437 90 0
437 -122 -90 0
-438 437 0
-438 118 0
438 -437 -118 0
-136 438 0
-136 57 0
136 -438 -57 0
c Gate #138: and (AND4_2): out = 137, in = 122 119 89 57 
-439 122 0
-439 119 0
439 -122 -119 0
-440 439 0
-440 89 0
440 -439 -89 0
-137 440 0
-137 57 0
137 -440 -57 0
c Gate #139: and (AND4_3): out = 138, in = 122 90 89 57 
-441 122 0
-441 90 0
441 -122 -90 0
-442 441 0
-442 89 0
442 -441 -89 0
-138 442 0
-138 57 0
138 -442 -57 0
c Gate #140: or (OR3_0): out = 139, in = 37 136 132 
443 -37 0
443 -136 0
-443 37 136 0
139 -443 0
139 -132 0
-139 443 132 0
c Gate #141: or (OR3_1): out = 140, in = 138 39 134 
444 -138 0
444 -39 0
-444 138 39 0
140 -444 0
140 -134 0
-140 444 134 0
c Gate #142: not (NOT_91): out = 141, in = 139 
141 139 0
-141 -139 0
c Gate #143: not (NOT_92): out = 142, in = 140 
142 140 0
-142 -140 0
c Gate #144: not (NOT_97): out = 143, in = 141 
143 141 0
-143 -141 0
c Gate #145: not (NOT_98): out = 144, in = 142 
144 142 0
-144 -142 0
c Gate #146: not (NOT_105): out = 145, in = 143 
145 143 0
-145 -143 0
c Gate #147: not (NOT_106): out = 146, in = 144 
146 144 0
-146 -144 0
c Gate #148: not (NOT_110): out = 147, in = 145 
147 145 0
-147 -145 0
c Gate #149: not (NOT_111): out = 148, in = 146 
148 146 0
-148 -146 0
c Gate #150: not (NOT_112): out = 149, in = 147 
149 147 0
-149 -147 0
c Gate #151: not (NOT_113): out = 150, in = 148 
150 148 0
-150 -148 0
c Gate #152: not (NOT_68): out = 151, in = 123 
151 123 0
-151 -123 0
c Gate #153: not (NOT_69): out = 152, in = 124 
152 124 0
-152 -124 0
c Gate #154: not (NOT_70): out = 153, in = 124 
153 124 0
-153 -124 0
c Gate #155: not (NOT_71): out = 154, in = 125 
154 125 0
-154 -125 0
c Gate #156: not (NOT_72): out = 155, in = 125 
155 125 0
-155 -125 0
c Gate #157: not (NOT_73): out = 156, in = 126 
156 126 0
-156 -126 0
c Gate #158: not (NOT_74): out = 157, in = 126 
157 126 0
-157 -126 0
c Gate #159: not (NOT_75): out = 158, in = 127 
158 127 0
-158 -127 0
c Gate #160: not (NOT_76): out = 159, in = 128 
159 128 0
-159 -128 0
c Gate #161: not (NOT_77): out = 160, in = 129 
160 129 0
-160 -129 0
c Gate #162: not (NOT_78): out = 161, in = 130 
161 130 0
-161 -130 0
c Gate #163: not (NOT_79): out = 162, in = 151 
162 151 0
-162 -151 0
c Gate #164: not (NOT_80): out = 163, in = 152 
163 152 0
-163 -152 0
c Gate #165: not (NOT_81): out = 164, in = 153 
164 153 0
-164 -153 0
c Gate #166: not (NOT_82): out = 165, in = 154 
165 154 0
-165 -154 0
c Gate #167: not (NOT_83): out = 166, in = 155 
166 155 0
-166 -155 0
c Gate #168: and (AND2_11): out = 167, in = 34 164 
-167 34 0
-167 164 0
167 -34 -164 0
c Gate #169: and (AND2_12): out = 168, in = 32 166 
-168 32 0
-168 166 0
168 -32 -166 0
c Gate #170: and (AND2_19): out = 169, in = 22 149 
-169 22 0
-169 149 0
169 -22 -149 0
c Gate #171: and (AND2_20): out = 170, in = 24 150 
-170 24 0
-170 150 0
170 -24 -150 0
c Gate #172: not (NOT_84): out = 171, in = 156 
171 156 0
-171 -156 0
c Gate #173: not (NOT_85): out = 172, in = 157 
172 157 0
-172 -157 0
c Gate #174: not (NOT_88): out = 173, in = 160 
173 160 0
-173 -160 0
c Gate #175: not (NOT_89): out = 174, in = 161 
174 161 0
-174 -161 0
c Gate #176: not (NOT_100): out = 175, in = 167 
175 167 0
-175 -167 0
c Gate #177: not (NOT_102): out = 176, in = 168 
176 168 0
-176 -168 0
c Gate #178: not (NOT_90): out = 177, in = 162 
177 162 0
-177 -162 0
c Gate #179: not (NOT_86): out = 178, in = 158 
178 158 0
-178 -158 0
c Gate #180: not (NOT_87): out = 179, in = 159 
179 159 0
-179 -159 0
c Gate #181: not (NOT_93): out = 180, in = 163 
180 163 0
-180 -163 0
c Gate #182: not (NOT_94): out = 181, in = 165 
181 165 0
-181 -165 0
c Gate #183: not (NOT_95): out = 182, in = 171 
182 171 0
-182 -171 0
c Gate #184: and (AND2_13): out = 183, in = 30 172 
-183 30 0
-183 172 0
183 -30 -172 0
c Gate #185: and (AND2_14): out = 184, in = 17 178 
-184 17 0
-184 178 0
184 -17 -178 0
c Gate #186: and (AND2_15): out = 185, in = 18 179 
-185 18 0
-185 179 0
185 -18 -179 0
c Gate #187: and (AND2_16): out = 186, in = 19 173 
-186 19 0
-186 173 0
186 -19 -173 0
c Gate #188: and (AND2_17): out = 187, in = 20 174 
-187 20 0
-187 174 0
187 -20 -174 0
c Gate #189: not (NOT_114): out = 188, in = 169 
188 169 0
-188 -169 0
c Gate #190: not (NOT_115): out = 189, in = 169 
189 169 0
-189 -169 0
c Gate #191: not (NOT_116): out = 190, in = 170 
190 170 0
-190 -170 0
c Gate #192: not (NOT_117): out = 191, in = 170 
191 170 0
-191 -170 0
c Gate #193: not (NOT_96): out = 192, in = 177 
192 177 0
-192 -177 0
c Gate #194: not (NOT_118): out = 193, in = 189 
193 189 0
-193 -189 0
c Gate #195: not (NOT_119): out = 194, in = 191 
194 191 0
-194 -191 0
c Gate #196: not (NOT_99): out = 195, in = 180 
195 180 0
-195 -180 0
c Gate #197: not (NOT_120): out = 196, in = 193 
196 193 0
-196 -193 0
c Gate #198: not (NOT_101): out = 197, in = 181 
197 181 0
-197 -181 0
c Gate #199: not (NOT_121): out = 198, in = 194 
198 194 0
-198 -194 0
c Gate #200: not (NOT_103): out = 199, in = 182 
199 182 0
-199 -182 0
c Gate #201: not (NOT_104): out = 200, in = 183 
200 183 0
-200 -183 0
c Gate #202: not (NOT_122): out = 201, in = 196 
201 196 0
-201 -196 0
c Gate #203: not (NOT_123): out = 202, in = 198 
202 198 0
-202 -198 0
c Gate #204: not (NOT_107): out = 203, in = 195 
203 195 0
-203 -195 0
c Gate #205: not (NOT_108): out = 204, in = 197 
204 197 0
-204 -197 0
c Gate #206: not (NOT_109): out = 205, in = 199 
205 199 0
-205 -199 0
c Gate #207: not (NOT_124): out = 206, in = 201 
206 201 0
-206 -201 0
c Gate #208: not (NOT_125): out = 207, in = 202 
207 202 0
-207 -202 0
c Gate #209: not (NOT_126): out = 208, in = 206 
208 206 0
-208 -206 0
c Gate #210: not (NOT_127): out = 209, in = 207 
209 207 0
-209 -207 0
c Gate #211: not (NOT_128): out = 210, in = 208 
210 208 0
-210 -208 0
c Gate #212: not (NOT_129): out = 211, in = 210 
211 210 0
-211 -210 0
c Gate #213: and (AND2_18): out = 212, in = 27 192 
-212 27 0
-212 192 0
212 -27 -192 0
c Gate #214: and (AND2_21): out = 213, in = 105 209 
-213 105 0
-213 209 0
213 -105 -209 0
c Gate #215: and (AND2_23): out = 214, in = 98 211 
-214 98 0
-214 211 0
214 -98 -211 0
c Gate #216: nand (NAND2_0): out = 215, in = 207 57 
215 207 0
215 57 0
-215 -207 -57 0
c Gate #217: nand (NAND2_1): out = 216, in = 210 57 
216 210 0
216 57 0
-216 -210 -57 0
c Gate #218: not (NOT_138): out = 217, in = 214 
217 214 0
-217 -214 0
c Gate #219: not (NOT_139): out = 218, in = 214 
218 214 0
-218 -214 0
c Gate #220: not (NOT_144): out = 219, in = 217 
219 217 0
-219 -217 0
c Gate #221: not (NOT_145): out = 220, in = 218 
220 218 0
-220 -218 0
c Gate #222: not (NOT_152): out = 221, in = 219 
221 219 0
-221 -219 0
c Gate #223: not (NOT_156): out = 222, in = 221 
222 221 0
-222 -221 0
c Gate #224: not (NOT_130): out = 223, in = 213 
223 213 0
-223 -213 0
c Gate #225: not (NOT_131): out = 224, in = 213 
224 213 0
-224 -213 0
c Gate #226: not (NOT_134): out = 225, in = 223 
225 223 0
-225 -223 0
c Gate #227: and (AND2_22): out = 226, in = 109 215 
-226 109 0
-226 215 0
226 -109 -215 0
c Gate #228: and (AND2_24): out = 227, in = 106 216 
-227 106 0
-227 216 0
227 -106 -216 0
c Gate #229: and (AND2_27): out = 228, in = 31 220 
-228 31 0
-228 220 0
228 -31 -220 0
c Gate #230: and (AND3_2): out = 229, in = 222 90 118 
-445 222 0
-445 90 0
445 -222 -90 0
-229 445 0
-229 118 0
229 -445 -118 0
c Gate #231: and (AND3_3): out = 230, in = 229 122 197 
-446 229 0
-446 122 0
446 -229 -122 0
-230 446 0
-230 197 0
230 -446 -197 0
c Gate #232: not (NOT_135): out = 231, in = 224 
231 224 0
-231 -224 0
c Gate #233: not (NOT_162): out = 232, in = 222 
232 222 0
-232 -222 0
c Gate #234: not (NOT_140): out = 233, in = 227 
233 227 0
-233 -227 0
c Gate #235: not (NOT_141): out = 234, in = 227 
234 227 0
-234 -227 0
c Gate #236: not (NOT_142): out = 235, in = 225 
235 225 0
-235 -225 0
c Gate #237: not (NOT_146): out = 236, in = 233 
236 233 0
-236 -233 0
c Gate #238: not (NOT_147): out = 237, in = 234 
237 234 0
-237 -234 0
c Gate #239: not (NOT_148): out = 238, in = 235 
238 235 0
-238 -235 0
c Gate #240: not (NOT_153): out = 239, in = 236 
239 236 0
-239 -236 0
c Gate #241: not (NOT_154): out = 240, in = 238 
240 238 0
-240 -238 0
c Gate #242: not (NOT_132): out = 241, in = 226 
241 226 0
-241 -226 0
c Gate #243: not (NOT_157): out = 242, in = 228 
242 228 0
-242 -228 0
c Gate #244: not (NOT_133): out = 243, in = 226 
243 226 0
-243 -226 0
c Gate #245: not (NOT_158): out = 244, in = 239 
244 239 0
-244 -239 0
c Gate #246: and (AND2_25): out = 245, in = 35 231 
-245 35 0
-245 231 0
245 -35 -231 0
c Gate #247: and (AND2_28): out = 246, in = 14 237 
-246 14 0
-246 237 0
246 -14 -237 0
c Gate #248: and (AND4_4): out = 247, in = 122 238 90 89 
-447 122 0
-447 238 0
447 -122 -238 0
-448 447 0
-448 90 0
448 -447 -90 0
-247 448 0
-247 89 0
247 -448 -89 0
c Gate #249: and (AND2_33): out = 248, in = 244 56 
-248 244 0
-248 56 0
248 -244 -56 0
c Gate #250: and (AND2_34): out = 249, in = 86 244 
-249 86 0
-249 244 0
249 -86 -244 0
c Gate #251: and (AND2_35): out = 250, in = 204 232 
-250 204 0
-250 232 0
250 -204 -232 0
c Gate #252: and (AND2_36): out = 251, in = 197 232 
-251 197 0
-251 232 0
251 -197 -232 0
c Gate #253: and (AND2_37): out = 252, in = 232 208 
-252 232 0
-252 208 0
252 -232 -208 0
c Gate #254: not (NOT_136): out = 253, in = 241 
253 241 0
-253 -241 0
c Gate #255: or (OR2_0): out = 254, in = 252 250 
254 -252 0
254 -250 0
-254 252 250 0
c Gate #256: not (NOT_160): out = 255, in = 240 
255 240 0
-255 -240 0
c Gate #257: not (NOT_137): out = 256, in = 243 
256 243 0
-256 -243 0
c Gate #258: not (NOT_163): out = 257, in = 244 
257 244 0
-257 -244 0
c Gate #259: not (NOT_143): out = 258, in = 253 
258 253 0
-258 -253 0
c Gate #260: not (NOT_164): out = 259, in = 255 
259 255 0
-259 -255 0
c Gate #261: not (NOT_149): out = 260, in = 245 
260 245 0
-260 -245 0
c Gate #262: not (NOT_150): out = 261, in = 258 
261 258 0
-261 -258 0
c Gate #263: not (NOT_155): out = 262, in = 261 
262 261 0
-262 -261 0
c Gate #264: not (NOT_167): out = 263, in = 251 
263 251 0
-263 -251 0
c Gate #265: not (NOT_168): out = 264, in = 263 
264 263 0
-264 -263 0
c Gate #266: not (NOT_169): out = 265, in = 259 
265 259 0
-265 -259 0
c Gate #267: not (NOT_171): out = 266, in = 264 
266 264 0
-266 -264 0
c Gate #268: not (NOT_159): out = 267, in = 246 
267 246 0
-267 -246 0
c Gate #269: not (NOT_172): out = 268, in = 254 
268 254 0
-268 -254 0
c Gate #270: and (AND2_26): out = 269, in = 16 256 
-269 16 0
-269 256 0
269 -16 -256 0
c Gate #271: not (NOT_173): out = 270, in = 265 
270 265 0
-270 -265 0
c Gate #272: and (AND2_29): out = 271, in = 261 56 
-271 261 0
-271 56 0
271 -261 -56 0
c Gate #273: and (AND2_30): out = 272, in = 261 84 
-272 261 0
-272 84 0
272 -261 -84 0
c Gate #274: and (AND2_31): out = 273, in = 261 56 
-273 261 0
-273 56 0
273 -261 -56 0
c Gate #275: and (AND2_32): out = 274, in = 261 56 
-274 261 0
-274 56 0
274 -261 -56 0
c Gate #276: and (AND3_1): out = 275, in = 262 38 56 
-449 262 0
-449 38 0
449 -262 -38 0
-275 449 0
-275 56 0
275 -449 -56 0
c Gate #277: not (NOT_175): out = 276, in = 266 
276 266 0
-276 -266 0
c Gate #278: and (AND3_4): out = 277, in = 257 36 56 
-450 257 0
-450 36 0
450 -257 -36 0
-277 450 0
-277 56 0
277 -450 -56 0
c Gate #279: not (NOT_176): out = 278, in = 268 
278 268 0
-278 -268 0
c Gate #280: or (OR3_2): out = 279, in = 137 275 133 
451 -137 0
451 -275 0
-451 137 275 0
279 -451 0
279 -133 0
-279 451 133 0
c Gate #281: not (NOT_161): out = 280, in = 274 
280 274 0
-280 -274 0
c Gate #282: not (NOT_177): out = 281, in = 270 
281 270 0
-281 -270 0
c Gate #283: not (NOT_179): out = 282, in = 276 
282 276 0
-282 -276 0
c Gate #284: not (NOT_180): out = 283, in = 278 
283 278 0
-283 -278 0
c Gate #285: not (NOT_165): out = 284, in = 280 
284 280 0
-284 -280 0
c Gate #286: not (NOT_151): out = 285, in = 269 
285 269 0
-285 -269 0
c Gate #287: not (NOT_166): out = 286, in = 279 
286 279 0
-286 -279 0
c Gate #288: not (NOT_170): out = 287, in = 286 
287 286 0
-287 -286 0
c Gate #289: not (NOT_174): out = 288, in = 287 
288 287 0
-288 -287 0
c Gate #290: not (NOT_178): out = 289, in = 288 
289 288 0
-289 -288 0
c Gate #291: not (NOT_181): out = 290, in = 289 
290 289 0
-290 -289 0
c Gate #292: and (AND2_38): out = 291, in = 23 290 
-291 23 0
-291 290 0
291 -23 -290 0
c Gate #293: not (NOT_182): out = 292, in = 291 
292 291 0
-292 -291 0
c Gate #294: not (NOT_183): out = 293, in = 291 
293 291 0
-293 -291 0
c Gate #295: not (NOT_184): out = 294, in = 293 
294 293 0
-294 -293 0
c Gate #296: not (NOT_185): out = 295, in = 294 
295 294 0
-295 -294 0
c Gate #297: not (NOT_186): out = 296, in = 295 
296 295 0
-296 -295 0
c Gate #298: not (NOT_187): out = 297, in = 296 
297 296 0
-297 -296 0
c Gate #299: not (NOT_188): out = 298, in = 297 
298 297 0
-298 -297 0
c Gate #300: not (NOT_189): out = 299, in = 298 
299 298 0
-299 -298 0
c Gate #301: not (NOT_190): out = 300, in = 299 
300 299 0
-300 -299 0
c Gate #302: and (AND2_39): out = 301, in = 96 300 
-301 96 0
-301 300 0
301 -96 -300 0
c Gate #303: nand (NAND2_2): out = 302, in = 299 57 
302 299 0
302 57 0
-302 -299 -57 0
c Gate #304: not (NOT_191): out = 303, in = 301 
303 301 0
-303 -301 0
c Gate #305: not (NOT_192): out = 304, in = 301 
304 301 0
-304 -301 0
c Gate #306: not (NOT_195): out = 305, in = 303 
305 303 0
-305 -303 0
c Gate #307: not (NOT_196): out = 306, in = 304 
306 304 0
-306 -304 0
c Gate #308: and (AND2_40): out = 307, in = 108 302 
-307 108 0
-307 302 0
307 -108 -302 0
c Gate #309: and (AND2_41): out = 308, in = 33 306 
-308 33 0
-308 306 0
308 -33 -306 0
c Gate #310: not (NOT_199): out = 309, in = 305 
309 305 0
-309 -305 0
c Gate #311: not (NOT_202): out = 310, in = 309 
310 309 0
-310 -309 0
c Gate #312: not (NOT_203): out = 311, in = 308 
311 308 0
-311 -308 0
c Gate #313: not (NOT_207): out = 312, in = 310 
312 310 0
-312 -310 0
c Gate #314: not (NOT_193): out = 313, in = 307 
313 307 0
-313 -307 0
c Gate #315: not (NOT_194): out = 314, in = 307 
314 307 0
-314 -307 0
c Gate #316: not (NOT_197): out = 315, in = 313 
315 313 0
-315 -313 0
c Gate #317: and (AND2_42): out = 316, in = 315 56 
-316 315 0
-316 56 0
316 -315 -56 0
c Gate #318: and (AND2_43): out = 317, in = 87 315 
-317 87 0
-317 315 0
317 -87 -315 0
c Gate #319: and (AND3_5): out = 318, in = 262 315 56 
-452 262 0
-452 315 0
452 -262 -315 0
-318 452 0
-318 56 0
318 -452 -56 0
c Gate #320: and (AND3_8): out = 319, in = 310 119 89 
-453 310 0
-453 119 0
453 -310 -119 0
-319 453 0
-319 89 0
319 -453 -89 0
c Gate #321: and (AND4_7): out = 320, in = 120 238 195 310 
-454 120 0
-454 238 0
454 -120 -238 0
-455 454 0
-455 195 0
455 -454 -195 0
-320 455 0
-320 310 0
320 -455 -310 0
c Gate #322: and (AND3_9): out = 321, in = 319 122 195 
-456 319 0
-456 122 0
456 -319 -122 0
-321 456 0
-321 195 0
321 -456 -195 0
c Gate #323: and (AND2_45): out = 322, in = 203 312 
-322 203 0
-322 312 0
322 -203 -312 0
c Gate #324: and (AND2_46): out = 323, in = 195 312 
-323 195 0
-323 312 0
323 -195 -312 0
c Gate #325: and (AND2_47): out = 324, in = 312 298 
-324 312 0
-324 298 0
324 -312 -298 0
c Gate #326: not (NOT_198): out = 325, in = 314 
325 314 0
-325 -314 0
c Gate #327: or (OR2_1): out = 326, in = 324 322 
326 -324 0
326 -322 0
-326 324 322 0
c Gate #328: not (NOT_200): out = 327, in = 315 
327 315 0
-327 -315 0
c Gate #329: not (NOT_204): out = 328, in = 327 
328 327 0
-328 -327 0
c Gate #330: not (NOT_205): out = 329, in = 318 
329 318 0
-329 -318 0
c Gate #331: not (NOT_208): out = 330, in = 329 
330 329 0
-330 -329 0
c Gate #332: not (NOT_212): out = 331, in = 323 
331 323 0
-331 -323 0
c Gate #333: not (NOT_213): out = 332, in = 331 
332 331 0
-332 -331 0
c Gate #334: not (NOT_215): out = 333, in = 332 
333 332 0
-333 -332 0
c Gate #335: not (NOT_216): out = 334, in = 326 
334 326 0
-334 -326 0
c Gate #336: not (NOT_218): out = 335, in = 333 
335 333 0
-335 -333 0
c Gate #337: not (NOT_219): out = 336, in = 334 
336 334 0
-336 -334 0
c Gate #338: not (NOT_221): out = 337, in = 335 
337 335 0
-337 -335 0
c Gate #339: not (NOT_222): out = 338, in = 336 
338 336 0
-338 -336 0
c Gate #340: and (AND2_44): out = 339, in = 15 325 
-339 15 0
-339 325 0
339 -15 -325 0
c Gate #341: not (NOT_201): out = 340, in = 315 
340 315 0
-340 -315 0
c Gate #342: and (AND3_6): out = 341, in = 262 340 257 
-457 262 0
-457 340 0
457 -262 -340 0
-341 457 0
-341 257 0
341 -457 -257 0
c Gate #343: and (AND3_7): out = 342, in = 277 262 340 
-458 277 0
-458 262 0
458 -277 -262 0
-342 458 0
-342 340 0
342 -458 -340 0
c Gate #344: and (AND4_5): out = 343, in = 262 340 244 56 
-459 262 0
-459 340 0
459 -262 -340 0
-460 459 0
-460 244 0
460 -459 -244 0
-343 460 0
-343 56 0
343 -460 -56 0
c Gate #345: and (AND4_6): out = 344, in = 262 340 244 56 
-461 262 0
-461 340 0
461 -262 -340 0
-462 461 0
-462 244 0
462 -461 -244 0
-344 462 0
-344 56 0
344 -462 -56 0
c Gate #346: or (OR3_3): out = 345, in = 342 135 131 
463 -342 0
463 -135 0
-463 342 135 0
345 -463 0
345 -131 0
-345 463 131 0
c Gate #347: not (NOT_206): out = 346, in = 339 
346 339 0
-346 -339 0
c Gate #348: not (NOT_209): out = 347, in = 344 
347 344 0
-347 -344 0
c Gate #349: not (NOT_210): out = 348, in = 345 
348 345 0
-348 -345 0
c Gate #350: not (NOT_211): out = 349, in = 347 
349 347 0
-349 -347 0
c Gate #351: not (NOT_214): out = 350, in = 348 
350 348 0
-350 -348 0
c Gate #352: not (NOT_217): out = 351, in = 350 
351 350 0
-351 -350 0
c Gate #353: not (NOT_220): out = 352, in = 351 
352 351 0
-352 -351 0
c Gate #354: not (NOT_223): out = 353, in = 352 
353 352 0
-353 -352 0
c Gate #355: and (AND2_48): out = 354, in = 21 353 
-354 21 0
-354 353 0
354 -21 -353 0
c Gate #356: not (NOT_224): out = 355, in = 354 
355 354 0
-355 -354 0
c Gate #357: not (NOT_225): out = 356, in = 354 
356 354 0
-356 -354 0
c Gate #358: not (NOT_226): out = 357, in = 356 
357 356 0
-357 -356 0
c Gate #359: not (NOT_227): out = 358, in = 357 
358 357 0
-358 -357 0
c Gate #360: not (NOT_228): out = 359, in = 358 
359 358 0
-359 -358 0
c Gate #361: not (NOT_229): out = 360, in = 359 
360 359 0
-360 -359 0
c Gate #362: not (NOT_230): out = 361, in = 360 
361 360 0
-361 -360 0
c Gate #363: not (NOT_231): out = 362, in = 361 
362 361 0
-362 -361 0
c Gate #364: nand (NAND2_3): out = 363, in = 362 57 
363 362 0
363 57 0
-363 -362 -57 0
c Gate #365: not (NOT_232): out = 364, in = 362 
364 362 0
-364 -362 0
c Gate #366: and (AND2_49): out = 365, in = 102 364 
-365 102 0
-365 364 0
365 -102 -364 0
c Gate #367: and (AND2_50): out = 366, in = 104 363 
-366 104 0
-366 363 0
366 -104 -363 0
c Gate #368: not (NOT_234): out = 367, in = 365 
367 365 0
-367 -365 0
c Gate #369: not (NOT_238): out = 368, in = 367 
368 367 0
-368 -367 0
c Gate #370: not (NOT_236): out = 369, in = 366 
369 366 0
-369 -366 0
c Gate #371: not (NOT_240): out = 370, in = 369 
370 369 0
-370 -369 0
c Gate #372: not (NOT_235): out = 371, in = 366 
371 366 0
-371 -366 0
c Gate #373: and (AND2_51): out = 372, in = 29 368 
-372 29 0
-372 368 0
372 -29 -368 0
c Gate #374: and (AND2_54): out = 373, in = 13 370 
-373 13 0
-373 370 0
373 -13 -370 0
c Gate #375: not (NOT_233): out = 374, in = 365 
374 365 0
-374 -365 0
c Gate #376: not (NOT_247): out = 375, in = 373 
375 373 0
-375 -373 0
c Gate #377: not (NOT_245): out = 376, in = 372 
376 372 0
-376 -372 0
c Gate #378: not (NOT_239): out = 377, in = 371 
377 371 0
-377 -371 0
c Gate #379: not (NOT_237): out = 378, in = 374 
378 374 0
-378 -374 0
c Gate #380: not (NOT_241): out = 379, in = 378 
379 378 0
-379 -378 0
c Gate #381: and (AND2_52): out = 380, in = 377 56 
-380 377 0
-380 56 0
380 -377 -56 0
c Gate #382: and (AND2_53): out = 381, in = 88 377 
-381 88 0
-381 377 0
381 -88 -377 0
c Gate #383: and (AND3_10): out = 382, in = 257 377 56 
-464 257 0
-464 377 0
464 -257 -377 0
-382 464 0
-382 56 0
382 -464 -56 0
c Gate #384: and (AND3_11): out = 383, in = 382 262 340 
-465 382 0
-465 262 0
465 -382 -262 0
-383 465 0
-383 340 0
383 -465 -340 0
c Gate #385: not (NOT_244): out = 384, in = 379 
384 379 0
-384 -379 0
c Gate #386: not (NOT_242): out = 385, in = 377 
385 377 0
-385 -377 0
c Gate #387: not (NOT_243): out = 386, in = 377 
386 377 0
-386 -377 0
c Gate #388: not (NOT_248): out = 387, in = 384 
387 384 0
-387 -384 0
c Gate #389: not (NOT_249): out = 388, in = 383 
388 383 0
-388 -383 0
c Gate #390: and (AND3_12): out = 389, in = 262 340 386 
-466 262 0
-466 340 0
466 -262 -340 0
-389 466 0
-389 386 0
389 -466 -386 0
c Gate #391: and (AND3_13): out = 390, in = 262 257 386 
-467 262 0
-467 257 0
467 -262 -257 0
-390 467 0
-390 386 0
390 -467 -386 0
c Gate #392: and (AND3_14): out = 391, in = 257 386 84 
-468 257 0
-468 386 0
468 -257 -386 0
-391 468 0
-391 84 0
391 -468 -84 0
c Gate #393: and (AND3_15): out = 392, in = 384 119 118 
-469 384 0
-469 119 0
469 -384 -119 0
-392 469 0
-392 118 0
392 -469 -118 0
c Gate #394: and (AND4_8): out = 393, in = 341 199 384 88 
-470 341 0
-470 199 0
470 -341 -199 0
-471 470 0
-471 384 0
471 -470 -384 0
-393 471 0
-393 88 0
393 -471 -88 0
c Gate #395: and (AND4_9): out = 394, in = 197 222 199 384 
-472 197 0
-472 222 0
472 -197 -222 0
-473 472 0
-473 199 0
473 -472 -199 0
-394 473 0
-394 384 0
394 -473 -384 0
c Gate #396: and (AND4_10): out = 395, in = 389 197 222 86 
-474 389 0
-474 197 0
474 -389 -197 0
-475 474 0
-475 222 0
475 -474 -222 0
-395 475 0
-395 86 0
395 -475 -86 0
c Gate #397: and (AND4_11): out = 396, in = 390 195 310 87 
-476 390 0
-476 195 0
476 -390 -195 0
-477 476 0
-477 310 0
477 -476 -310 0
-396 477 0
-396 87 0
396 -477 -87 0
c Gate #398: and (AND3_16): out = 397, in = 391 238 340 
-478 391 0
-478 238 0
478 -391 -238 0
-397 478 0
-397 340 0
397 -478 -340 0
c Gate #399: and (AND3_17): out = 398, in = 392 122 199 
-479 392 0
-479 122 0
479 -392 -122 0
-398 479 0
-398 199 0
398 -479 -199 0
c Gate #400: and (AND2_55): out = 399, in = 320 394 
-399 320 0
-399 394 0
399 -320 -394 0
c Gate #401: and (AND2_56): out = 400, in = 205 387 
-400 205 0
-400 387 0
400 -205 -387 0
c Gate #402: and (AND2_57): out = 401, in = 199 387 
-401 199 0
-401 387 0
401 -199 -387 0
c Gate #403: and (AND2_58): out = 402, in = 387 361 
-402 387 0
-402 361 0
402 -387 -361 0
c Gate #404: not (NOT_246): out = 403, in = 385 
403 385 0
-403 -385 0
c Gate #405: not (NOT_252): out = 404, in = 401 
404 401 0
-404 -401 0
c Gate #406: or (OR3_4): out = 405, in = 393 381 380 
480 -393 0
480 -381 0
-480 393 381 0
405 -480 0
405 -380 0
-405 480 380 0
c Gate #407: or (OR3_5): out = 406, in = 395 249 248 
481 -395 0
481 -249 0
-481 395 249 0
406 -481 0
406 -248 0
-406 481 248 0
c Gate #408: or (OR3_6): out = 407, in = 396 317 316 
482 -396 0
482 -317 0
-482 396 317 0
407 -482 0
407 -316 0
-407 482 316 0
c Gate #409: or (OR3_7): out = 408, in = 397 272 271 
483 -397 0
483 -272 0
-483 397 272 0
408 -483 0
408 -271 0
-408 483 271 0
c Gate #410: or (OR3_8): out = 409, in = 321 398 121 
484 -321 0
484 -398 0
-484 321 398 0
409 -484 0
409 -121 0
-409 484 121 0
c Gate #411: or (OR2_2): out = 410, in = 402 400 
410 -402 0
410 -400 0
-410 402 400 0
c Gate #412: or (OR4_0): out = 411, in = 409 399 247 230 
485 -409 0
485 -399 0
-485 409 399 0
486 -485 0
486 -247 0
-486 485 247 0
411 -486 0
411 -230 0
-411 486 230 0
c Gate #413: not (NOT_256): out = 412, in = 408 
412 408 0
-412 -408 0
c Gate #414: not (NOT_259): out = 413, in = 410 
413 410 0
-413 -410 0
c Gate #415: not (NOT_253): out = 414, in = 404 
414 404 0
-414 -404 0
c Gate #416: not (NOT_254): out = 415, in = 406 
415 406 0
-415 -406 0
c Gate #417: not (NOT_250): out = 416, in = 388 
416 388 0
-416 -388 0
c Gate #418: not (NOT_251): out = 417, in = 405 
417 405 0
-417 -405 0
c Gate #419: not (NOT_262): out = 418, in = 412 
418 412 0
-418 -412 0
c Gate #420: not (NOT_263): out = 419, in = 411 
419 411 0
-419 -411 0
c Gate #421: not (NOT_258): out = 420, in = 414 
420 414 0
-420 -414 0
c Gate #422: not (NOT_255): out = 421, in = 407 
421 407 0
-421 -407 0
c Gate #423: not (NOT_260): out = 422, in = 415 
422 415 0
-422 -415 0
c Gate #424: not (NOT_265): out = 423, in = 413 
423 413 0
-423 -413 0
c Gate #425: not (NOT_261): out = 424, in = 421 
424 421 0
-424 -421 0
c Gate #426: not (NOT_264): out = 425, in = 420 
425 420 0
-425 -420 0
c Gate #427: not (NOT_267): out = 426, in = 425 
426 425 0
-426 -425 0
c Gate #428: not (NOT_268): out = 427, in = 423 
427 423 0
-427 -423 0
c Gate #429: not (NOT_266): out = 428, in = 419 
428 419 0
-428 -419 0
c Gate #430: not (NOT_257): out = 429, in = 417 
429 417 0
-429 -417 0
c Gate #431: not (NOT_269): out = 430, in = 428 
430 428 0
-430 -428 0
c Gate #432: not (NOT_270): out = 431, in = 430 
431 430 0
-431 -430 0
c Gate #433: not (NOT_271): out = 432, in = 431 
432 431 0
-432 -431 0
c Gate #434: and (AND2_59): out = 433, in = 25 432 
-433 25 0
-433 432 0
433 -25 -432 0
c
c Random XOR constraints start here
c
-487 433 212 0
-487 -433 -212 0
487 -433 212 0
487 433 -212 0
487 0
c Rand xor clause 1 with 2 lits
-488 433 212 0
-488 -433 -212 0
488 -433 212 0
488 433 -212 0
488 0
c Rand xor clause 2 with 2 lits
-489 433 212 0
-489 -433 -212 0
489 -433 212 0
489 433 -212 0
489 0
c Rand xor clause 3 with 2 lits
